Route #1: 5 8 7 9 4 3 10 6 71 12 16 17 13 2 15 19 33 35 36
Route #2: 1 11
Route #3: 31 32 34 54 56 57 39 68 40 38 37 69 67 66 65 64 62 63 59 58 61 60 14 18
Route #4: 55 41 49 70 51 50 47 48 44 46 52 45 53 43 42 27 28 22 21 30 26 25 24 23 29 20
Cost 246